Route #1: 1 12 3 30 21 36 4 3 33 1 
Route #2: 1 6 50 11 16 45 43 45 1 
Route #3: 1 2 3 23 9 29 32 9 28 1 
Route #4: 1 25 44 25 26 25 15 1 
Route #5: 1 18 38 45 46 34 11 39 3 1 
Route #6: 1 48 13 47 1 
Route #7: 1 11 31 10 51 35 22 17 3 1 
Route #8: 1 19 1 
Route #9: 1 42 14 42 41 20 42 5 1 
Route #10: 1 7 25 24 8 9 27 9 49 1 
Cost 865.0
